\* Problem: Unknown *\

Maximize
 obj: + xp_0_0 + xp_0_1 + xp_0_2 + xp_0_3 + xp_0_4 + xp_0_5 + xp_0_6
 + xp_0_7 + xp_0_8 + xp_1_0 + xp_1_1 + xp_1_2 + xp_2_0 + xp_2_1 + xp_2_2
 + xp_2_3 + xp_2_4 + xp_3_0 + xp_3_1 + xp_3_2 + xp_3_3 + xp_4_0 + xp_5_0
 + xp_5_1 + xp_6_0 + xp_6_1 + xp_7_0 + xp_8_0 + xp_8_1 + xp_9_0
 + xp_10_0 + xp_11_0 + xp_11_1 + xp_11_2 + xp_11_3 + xp_12_0 + xp_12_1
 + xp_13_0 + xp_13_1 + xp_14_0 + xp_14_1 + xp_15_0 + xp_16_0 + xp_16_1
 + xp_17_0 + xp_17_1 + xp_17_2 + xp_17_3 + xp_17_4 + xp_17_5 + xp_18_0
 + xp_18_1 + xp_18_2 + xp_18_3 + xp_18_4 + xp_19_0 + xp_19_1 + xp_19_2
 + xp_19_3 + xp_19_4 + xp_19_5 + xp_20_0 + xp_20_1 + xp_20_2 + xp_20_3
 + xp_21_0 + xp_21_1 + xp_21_2 + xp_21_3 + xp_21_4 + xp_21_5 + xp_22_0
 + xp_22_1 + xp_22_2 + xp_22_3 + xp_22_4 + xp_22_5 + xp_22_6 + xp_23_0
 + xp_23_1 + xp_23_2 + xp_23_3 + xp_23_4 + xp_23_5

Subject To
 r_1: 0 xp_0_0 <= 25.7482284285119
 r_2: + xp_23_2 + xp_22_3 + xp_18_4 + xp_18_1 + xp_12_1 + xp_6_1
 + xp_5_1 + xp_2_2 <= 25.5951933909125
 r_3: + xp_23_4 + xp_22_6 + xp_22_5 + xp_21_2 + xp_18_2
 <= 26.3893805309735
 r_4: + xp_17_3 + xp_15_0 <= 26.6425279789335
 r_5: + xp_18_0 + xp_0_6 <= 25.3650893136948
 r_6: + xp_18_3 <= 26.2815479528884
 r_7: + xp_20_3 <= 25.7482284285119
 r_8: + xp_22_2 + xp_11_3 + xp_3_3 + xp_3_2 + xp_2_1 <= 25.5951933909125
 r_9: + xp_23_1 + xp_11_1 + xp_3_1 <= 26.3893805309735
 r_10: + xp_17_4 + xp_3_0 <= 26.6425279789335
 r_11: + xp_18_3 + xp_11_2 + xp_0_7 <= 25.3650893136948
 r_12: + xp_11_0 <= 26.2815479528884
 r_13: 0 xp_0_0 <= 27.6367006487488
 r_14: + xp_21_1 + xp_19_4 + xp_14_0 + xp_0_1 <= 25.5951933909125
 r_15: + xp_21_0 + xp_19_3 <= 26.3893805309735
 r_16: + xp_22_1 + xp_21_3 + xp_19_5 + xp_0_5 + xp_0_3 + xp_0_2
 <= 26.2815479528884
 r_17: + xp_0_0 <= 25.3650893136948
 r_18: + xp_21_2 + xp_4_0 + xp_0_6 <= 25.7482284285119
 r_19: + xp_19_0 + xp_0_7 <= 25.7482284285119
 r_20: + xp_21_5 + xp_21_4 + xp_19_2 + xp_19_1 + xp_14_1 + xp_0_8
 + xp_0_4 <= 27.6367006487488
 r_21: + xp_20_1 <= 25.5951933909125
 r_22: + xp_21_4 + xp_21_1 <= 26.3893805309735
 r_23: + xp_22_4 + xp_22_3 + xp_22_2 + xp_17_5 + xp_3_3
 <= 26.2815479528884
 r_24: + xp_23_2 + xp_21_5 + xp_18_4 + xp_6_1 + xp_3_2 + xp_0_8
 <= 25.8704453441296
 r_25: 0 xp_0_0 <= 27.6367006487488
 r_26: + xp_18_1 + xp_0_4 + xp_0_1 <= 25.3650893136948
 r_27: + xp_11_3 <= 25.5951933909125
 r_28: + xp_19_4 + xp_19_2 <= 25.5951933909125
 r_29: + xp_20_2 <= 26.3893805309735
 r_30: + xp_2_0 <= 26.3893805309735
 r_31: + xp_23_4 + xp_23_1 + xp_22_6 + xp_22_5 + xp_18_2 + xp_3_1
 + xp_2_4 <= 25.8704453441296
 r_32: + xp_2_3 <= 27.6367006487488
 r_33: + xp_11_1 + xp_2_2 <= 26.3893805309735
 r_34: + xp_19_3 + xp_2_1 <= 26.3893805309735
 r_35: 0 xp_0_0 <= 26.2815479528884
 r_36: + xp_9_0 <= 26.2815479528884
 r_37: + xp_21_3 + xp_13_1 + xp_8_1 + xp_0_5 <= 25.8704453441296
 r_38: + xp_23_5 + xp_1_1 <= 27.941473259334
 r_39: + xp_19_5 + xp_17_5 + xp_17_1 + xp_3_3 + xp_0_3
 <= 26.6425279789335
 r_40: + xp_0_2 <= 25.3650893136948
 r_41: + xp_12_0 + xp_2_4 <= 25.8704453441296
 r_42: + xp_21_5 + xp_21_3 <= 25.8704453441296
 r_43: + xp_22_5 + xp_16_0 <= 25.8704453441296
 r_44: + xp_23_4 + xp_23_3 + xp_23_2 + xp_23_1 + xp_22_6 + xp_16_1
 + xp_1_2 <= 27.941473259334
 r_45: + xp_17_2 + xp_12_1 + xp_3_2 + xp_3_1 <= 26.6425279789335
 r_46: + xp_18_4 + xp_18_2 + xp_0_8 + xp_0_5 <= 25.3650893136948
 r_47: + xp_22_6 + xp_16_1 + xp_13_1 <= 27.941473259334
 r_48: + xp_13_0 <= 27.941473259334
 r_49: 0 xp_0_0 <= 26.6425279789335
 r_50: 0 xp_0_0 <= 25.3650893136948
 r_51: + xp_8_1 + xp_1_1 <= 26.6425279789335
 r_52: + xp_8_0 + xp_1_2 <= 26.6425279789335
 r_53: + xp_1_0 <= 26.6425279789335
 r_54: + xp_0_3 <= 25.3650893136948
 r_55: + xp_12_1 <= 26.6425279789335
 r_56: + xp_19_5 <= 26.6425279789335
 r_57: + xp_22_1 <= 25.3650893136948
 r_58: + xp_22_4 + xp_17_5 + xp_5_0 <= 25.3650893136948
 r_59: + xp_23_5 + xp_22_0 + xp_17_1 <= 25.3650893136948
 r_60: + xp_23_3 + xp_17_2 + xp_6_0 <= 25.3650893136948
 r_61: + xp_23_0 <= 25.3650893136948
 r_62: + xp_17_0 <= 25.3650893136948
 r_63: + xp_23_4 + xp_23_2 + xp_22_6 + xp_22_5 + xp_22_3 + xp_17_3
 + xp_11_2 + xp_6_1 + xp_5_1 <= 25.3650893136948
 r_64: + xp_23_1 + xp_22_2 + xp_17_4 <= 25.3650893136948
 r_65: + xp_21_5 + xp_21_4 + xp_20_1 + xp_19_2 + xp_14_1 + xp_2_3
 + xp_0_8 + xp_0_4 <= 27.6367006487488
 r_66: + xp_20_2 + xp_7_0 <= 27.6367006487488
 r_67: + xp_20_3 + xp_19_1 + xp_10_0 <= 27.6367006487488
 r_68: + xp_20_0 <= 27.6367006487488

Bounds
 0 <= xp_0_0 <= 27.9717766276435
 0 <= xp_0_1 <= 6.26297612096862
 0 <= xp_0_2 <= 13.1277869590603
 0 <= xp_0_3 <= 4.9479965561944
 0 <= xp_0_4 <= 3.98958941524577
 0 <= xp_0_5 <= 2.4739982780972
 0 <= xp_0_6 <= 0.757795568574285
 0 <= xp_0_7 <= 0.757795568574285
 0 <= xp_0_8 <= 2.4739982780972
 0 <= xp_1_0 <= 18.4472444607179
 0 <= xp_1_1 <= 13.4992479045235
 0 <= xp_1_2 <= 3.19464923652413
 0 <= xp_2_0 <= 23.6181334177791
 0 <= xp_2_1 <= 2.02822337235653
 0 <= xp_2_2 <= 4.50222165045373
 0 <= xp_2_3 <= 0.676074457452178
 0 <= xp_2_4 <= 3.82614719300155
 0 <= xp_3_0 <= 21.6047540350912
 0 <= xp_3_1 <= 5.4011885087728
 0 <= xp_3_2 <= 3.8335741358324
 0 <= xp_3_3 <= 1.3595758577352
 0 <= xp_4_0 <= 26.1515472385231
 0 <= xp_5_0 <= 23.7741338532028
 0 <= xp_5_1 <= 2.37741338532028
 0 <= xp_6_0 <= 21.3967204678826
 0 <= xp_6_1 <= 2.13967204678826
 0 <= xp_7_0 <= 22.5557094932262
 0 <= xp_8_0 <= 16.582458362609
 0 <= xp_8_1 <= 3.68499074724644
 0 <= xp_9_0 <= 18.7964245776885
 0 <= xp_10_0 <= 18.7964245776885
 0 <= xp_11_0 <= 27.2139810590692
 0 <= xp_11_1 <= 17.1470841456294
 0 <= xp_11_2 <= 5.8692343470129
 0 <= xp_11_3 <= 9.26447041592859
 0 <= xp_12_0 <= 16.0475403509119
 0 <= xp_12_1 <= 1.60475403509119
 0 <= xp_13_0 <= 14.0415978070479
 0 <= xp_13_1 <= 3.12035506823287
 0 <= xp_14_0 <= 11.8870669266014
 0 <= xp_14_1 <= 4.45765009747553
 0 <= xp_15_0 <= 16.1812698538362
 0 <= xp_16_0 <= 12.7043027778053
 0 <= xp_16_1 <= 2.82317839506784
 0 <= xp_17_0 <= 28.0534977387656
 0 <= xp_17_1 <= 4.97027243669038
 0 <= xp_17_2 <= 1.6567574788968
 0 <= xp_17_3 <= 4.13075575699399
 0 <= xp_17_4 <= 4.97027243669038
 0 <= xp_17_5 <= 1.6567574788968
 0 <= xp_18_0 <= 20.2451534373732
 0 <= xp_18_1 <= 3.95244975309497
 0 <= xp_18_2 <= 3.95244975309497
 0 <= xp_18_3 <= 13.8484428654838
 0 <= xp_18_4 <= 1.47845147499777
 0 <= xp_19_0 <= 27.607732729018
 0 <= xp_19_1 <= 2.86774994804604
 0 <= xp_19_2 <= 4.30162492206906
 0 <= xp_19_3 <= 5.34174822614324
 0 <= xp_19_4 <= 1.43387497402302
 0 <= xp_19_5 <= 1.43387497402302
 0 <= xp_20_0 <= 27.4591443924355
 0 <= xp_20_1 <= 6.55274069529248
 0 <= xp_20_2 <= 4.07874241719528
 0 <= xp_20_3 <= 4.07874241719528
 0 <= xp_21_0 <= 24.6582517738568
 0 <= xp_21_1 <= 7.34026382717638
 0 <= xp_21_2 <= 2.39226727098198
 0 <= xp_21_3 <= 3.58840090647297
 0 <= xp_21_4 <= 1.19613363549099
 0 <= xp_21_5 <= 1.19613363549099
 0 <= xp_22_0 <= 20.4606238434058
 0 <= xp_22_1 <= 2.4739982780972
 0 <= xp_22_2 <= 9.13817775182829
 0 <= xp_22_3 <= 2.09509059781694
 0 <= xp_22_4 <= 1.04754529890847
 0 <= xp_22_5 <= 2.4739982780972
 0 <= xp_22_6 <= 1.04754529890847
 0 <= xp_23_0 <= 29.3090716568861
 0 <= xp_23_1 <= 1.04754529890847
 0 <= xp_23_2 <= 2.09509059781694
 0 <= xp_23_3 <= 3.14263589672542
 0 <= xp_23_4 <= 2.09509059781694
 0 <= xp_23_5 <= 1.04754529890847

End
